mytests/instances/shuffled_20cycle.gr
p ocr 20 20 40
1 27
1 32
2 27
2 23
3 32
3 40
4 23
4 21
5 40
5 39
6 21
6 26
7 39
7 33
8 26
8 37
9 33
9 22
10 37
10 25
11 22
11 36
12 25
12 30
13 36
13 34
14 30
14 38
15 34
15 24
16 38
16 35
17 24
17 29
18 35
18 31
19 29
19 28
20 31
20 28
