mytests/solutions/shuffled_20cycle.sol
27
32
23
40
21
39
26
33
37
22
25
36
30
34
38
24
35
29
31
28
